BaTiO3                                  
   1.0000000000000000     
     3.9860000000000002    0.0000000000000000    0.0000000000000000
     0.0000000000000000    3.9860000000000002    0.0000000000000000
     0.0000000000000000    0.0000000000000000    4.0298460000000000
   Ba   Ti   O 
     1     1     3
Direct
 -0.0000000000000000  0.0000000000000000 -0.0096751813941247
  0.5000000000000000  0.5000000000000000  0.4751970394474812
  0.5000000000000000  0.5000000000000000  0.0143399835559606
 -0.0000000000000000  0.5000000000000000  0.5050690791953424
  0.5000000000000000  0.0000000000000000  0.5050690791953424

  0.00000000E+00  0.00000000E+00  0.00000000E+00
  0.00000000E+00  0.00000000E+00  0.00000000E+00
  0.00000000E+00  0.00000000E+00  0.00000000E+00
  0.00000000E+00  0.00000000E+00  0.00000000E+00
  0.00000000E+00  0.00000000E+00  0.00000000E+00
