generated by phonopy
   1.0
     7.9720000000000004    0.0000000000000000    0.0000000000000000
     0.0000000000000000    7.9720000000000004    0.0000000000000000
     0.0000000000000000    0.0000000000000000    8.0596920000000001
Ba Ti O
   8    8   24
Direct
  0.0000000000000000  0.0000000000000000  0.9951624093029376
  0.5000000000000000  0.0000000000000000  0.9951624093029376
  0.0000000000000000  0.5000000000000000  0.9951624093029376
  0.5000000000000000  0.5000000000000000  0.9951624093029376
  0.0000000000000000  0.0000000000000000  0.4951624093029376
  0.5000000000000000  0.0000000000000000  0.4951624093029376
  0.0000000000000000  0.5000000000000000  0.4951624093029376
  0.5000000000000000  0.5000000000000000  0.4951624093029376
  0.2500000000000000  0.2500000000000000  0.2375985197237406
  0.7500000000000000  0.2500000000000000  0.2375985197237406
  0.2500000000000000  0.7500000000000000  0.2375985197237406
  0.7500000000000000  0.7500000000000000  0.2375985197237406
  0.2500000000000000  0.2500000000000000  0.7375985197237406
  0.7500000000000000  0.2500000000000000  0.7375985197237406
  0.2500000000000000  0.7500000000000000  0.7375985197237406
  0.7500000000000000  0.7500000000000000  0.7375985197237406
  0.2500000000000000  0.2500000000000000  0.0071699917779803
  0.7500000000000000  0.2500000000000000  0.0071699917779803
  0.2500000000000000  0.7500000000000000  0.0071699917779803
  0.7500000000000000  0.7500000000000000  0.0071699917779803
  0.2500000000000000  0.2500000000000000  0.5071699917779802
  0.7500000000000000  0.2500000000000000  0.5071699917779802
  0.2500000000000000  0.7500000000000000  0.5071699917779802
  0.7500000000000000  0.7500000000000000  0.5071699917779802
  0.9992784327963367  0.2492784327963367  0.2518129723940079
  0.5000000000000000  0.2500000000000000  0.2525345395976712
  0.0000000000000000  0.7500000000000000  0.2525345395976712
  0.5000000000000000  0.7500000000000000  0.2525345395976712
  0.0000000000000000  0.2500000000000000  0.7525345395976712
  0.5000000000000000  0.2500000000000000  0.7525345395976712
  0.0000000000000000  0.7500000000000000  0.7525345395976712
  0.5000000000000000  0.7500000000000000  0.7525345395976712
  0.2500000000000000  0.0000000000000000  0.2525345395976712
  0.7500000000000000  0.0000000000000000  0.2525345395976712
  0.2500000000000000  0.5000000000000000  0.2525345395976712
  0.7500000000000000  0.5000000000000000  0.2525345395976712
  0.2500000000000000  0.0000000000000000  0.7525345395976712
  0.7500000000000000  0.0000000000000000  0.7525345395976712
  0.2500000000000000  0.5000000000000000  0.7525345395976712
  0.7500000000000000  0.5000000000000000  0.7525345395976712
